(set-logic QF_S)
(set-option :parse-transducers true)
(set-option :produce-models true)
(define-fun-rec toLower ((x String) (y String)) Bool
   (or (and (= x "") (= y ""))
       (and (not (= x "")) (not (= y ""))
           (= (char.code (str.head y))
               (ite (and (<= 65 (char.code (str.head x)))
                       (<= (char.code (str.head x)) 90))
                   (+ (char.code (str.head x)) 32)
                   (char.code (str.head x))))
           (toLower (str.tail x) (str.tail y))))
)
(declare-fun sym122 () String)
(declare-fun sym400 () String)
(declare-fun sym742 () String)
(declare-fun sym247 () String)
(declare-fun sym514 () String)
(declare-fun sym856 () String)
(declare-fun sym628 () String)
(declare-fun L5  () String)
(declare-fun L10  () String)
(declare-fun L4  () String)
(declare-fun L1  () String)
(declare-fun L2  () String)
(declare-fun L0  () String)
(declare-fun L17  () String)
(assert (toLower sym122  L17 ))
(assert (toLower sym400  L0 ))
(assert (toLower sym742  L2 ))
(assert (toLower sym856  L1 ))
(assert (toLower sym628  L4 ))
(assert (toLower sym514  L10 ))
(assert (toLower sym247  L5 ))

(assert (not (str.contains L0 "/setfont" )))
(assert (not (= L1 "/restart" )))
(assert (not (= L2 "n" )))
(assert (not (= L2 "/?" )))
(assert (not (= L4 "y" )))
(assert (not (str.contains L5 "/setsize" )))
(assert (not (= L0 "/quit" )))
(assert (not (= L0 "/restart" )))
(assert (not (str.contains L2 "/setsize" )))
(assert (not (= L5 "/help" )))
(assert (not (str.contains L10 "/setsize" )))
(assert (not (= L10 "/?" )))
(assert (not (= L1 "n" )))
(assert (not (= L0 "/help" )))
(assert (not (str.contains L0 "/say" )))
(assert (not (= L10 "y" )))
(assert (not (= L0 "n" )))
(assert (= L17 "middle school" ))
(assert (not (str.contains L2 "/setfont" )))
(assert (not (str.contains L0 "/setsize" )))
(assert (not (= L2 "/restart" )))
(assert (not (str.contains L2 "/say" )))
(assert (not (= L10 "/clear" )))
(assert (not (= L5 "/?" )))
(assert (not (= L4 "/restart" )))
(assert (not (= L1 "y" )))
(assert (not (= L0 "y" )))
(assert (not (= L5 "y" )))
(assert (not (= L10 "n" )))
(assert (not (= L2 "/help" )))
(assert (not (= L2 "/clear" )))
(assert (not (= L4 "/quit" )))
(assert (not (= L0 "/clear" )))
(assert (not (= L4 "/help" )))
(assert (not (= L10 "/help" )))
(assert (not (= L10 "/quit" )))
(assert (not (= L2 "y" )))
(assert (not (str.contains L4 "/say" )))
(assert (not (= L5 "/quit" )))
(assert (not (str.contains L4 "/setsize" )))
(assert (not (= L10 "/restart" )))
(assert (not (str.contains L5 "/setfont" )))
(assert (not (= L17 "elementary" )))
(assert (not (= L4 "n" )))
(assert (not (= L5 "/clear" )))
(assert (not (= L4 "/?" )))
(assert (not (= L2 "/quit" )))
(assert (= L1 "/quit" ))
(assert (not (= L4 "/clear" )))
(assert (not (str.contains L10 "/say" )))
(assert (not (str.contains L4 "/setfont" )))
(assert (not (str.contains L5 "/say" )))
(assert (not (= L0 "/?" )))
(assert (not (str.contains L10 "/setfont" )))
(assert (not (= L5 "/restart" )))
(assert (not (= L5 "n" )))
(check-sat)
(get-model)
(exit)
